Strategies:  

WARNING: for repeatability, setting FPU to use double precision
============================[ Problem Statistics ]=============================
|                                                                             |
|  Number of variables:           999                                         |
|  Number of clauses:            9072                                         |
|  Parse time:                   0.00 s                                       |
|  Eliminated clauses:           0.00 Mb                                      |
|  Simplification time:          0.00 s                                       |
|                                                                             |
============================[ Search Statistics ]==============================
| Conflicts |          ORIGINAL         |          LEARNT          | Progress |
|           |    Vars  Clauses Literals |    Limit  Clauses Lit/Cl |          |
===============================================================================
===============================================================================
restarts              : 1
conflicts             : 8              (2000 /sec)
decisions             : 20             (0.00 % random) (5000 /sec)
propagations          : 1269           (317250 /sec)
conflict literals     : 9              (0.00 % deleted)
Memory used           : 22.00 MB
CPU time              : 0.004 s

SATISFIABLE


Strategies: -b -p  

WARNING: for repeatability, setting FPU to use double precision
============================[ Problem Statistics ]=============================
|                                                                             |
|  Number of variables:           999                                         |
|  Number of clauses:          338580                                         |
|  Parse time:                   0.27 s                                       |
|  Eliminated clauses:           0.00 Mb                                      |
|  Simplification time:         25.57 s                                       |
|                                                                             |
============================[ Search Statistics ]==============================
| Conflicts |          ORIGINAL         |          LEARNT          | Progress |
|           |    Vars  Clauses Literals |    Limit  Clauses Lit/Cl |          |
===============================================================================
===============================================================================
restarts              : 1
conflicts             : 3              (0 /sec)
decisions             : 8              (0.00 % random) (0 /sec)
propagations          : 901            (35 /sec)
conflict literals     : 3              (0.00 % deleted)
Memory used           : 90.00 MB
CPU time              : 25.836 s

SATISFIABLE


Strategies: -b -x  

WARNING: for repeatability, setting FPU to use double precision
============================[ Problem Statistics ]=============================
|                                                                             |
|  Number of variables:           999                                         |
|  Number of clauses:          302292                                         |
|  Parse time:                   0.22 s                                       |
|  Eliminated clauses:           0.00 Mb                                      |
|  Simplification time:          0.32 s                                       |
|                                                                             |
============================[ Search Statistics ]==============================
| Conflicts |          ORIGINAL         |          LEARNT          | Progress |
|           |    Vars  Clauses Literals |    Limit  Clauses Lit/Cl |          |
===============================================================================
===============================================================================
restarts              : 1
conflicts             : 3              (5 /sec)
decisions             : 5              (0.00 % random) (9 /sec)
propagations          : 986            (1799 /sec)
conflict literals     : 4              (50.00 % deleted)
Memory used           : 77.00 MB
CPU time              : 0.548 s

SATISFIABLE


Strategies: -b -x -p  

WARNING: for repeatability, setting FPU to use double precision
============================[ Problem Statistics ]=============================
|                                                                             |
|  Number of variables:           999                                         |
|  Number of clauses:          628884                                         |
|  Parse time:                   0.48 s                                       |
|  Eliminated clauses:           0.00 Mb                                      |
|  Simplification time:         25.14 s                                       |
|                                                                             |
============================[ Search Statistics ]==============================
| Conflicts |          ORIGINAL         |          LEARNT          | Progress |
|           |    Vars  Clauses Literals |    Limit  Clauses Lit/Cl |          |
===============================================================================
===============================================================================
restarts              : 1
conflicts             : 3              (0 /sec)
decisions             : 8              (0.00 % random) (0 /sec)
propagations          : 901            (35 /sec)
conflict literals     : 3              (0.00 % deleted)
Memory used           : 142.00 MB
CPU time              : 25.62 s

SATISFIABLE


Strategies: -b -a  

WARNING: for repeatability, setting FPU to use double precision
============================[ Problem Statistics ]=============================
|                                                                             |
|  Number of variables:           999                                         |
|  Number of clauses:          956772                                         |
|  Parse time:                   0.91 s                                       |
|  Eliminated clauses:           0.00 Mb                                      |
|  Simplification time:          2.42 s                                       |
|                                                                             |
============================[ Search Statistics ]==============================
| Conflicts |          ORIGINAL         |          LEARNT          | Progress |
|           |    Vars  Clauses Literals |    Limit  Clauses Lit/Cl |          |
===============================================================================
===============================================================================
restarts              : 1
conflicts             : 3              (1 /sec)
decisions             : 5              (0.00 % random) (2 /sec)
propagations          : 986            (297 /sec)
conflict literals     : 4              (50.00 % deleted)
Memory used           : 287.00 MB
CPU time              : 3.324 s

SATISFIABLE


Strategies: -b  

WARNING: for repeatability, setting FPU to use double precision
============================[ Problem Statistics ]=============================
|                                                                             |
|  Number of variables:           999                                         |
|  Number of clauses:           11988                                         |
|  Parse time:                   0.00 s                                       |
|  Eliminated clauses:           0.00 Mb                                      |
|  Simplification time:          0.01 s                                       |
|                                                                             |
============================[ Search Statistics ]==============================
| Conflicts |          ORIGINAL         |          LEARNT          | Progress |
|           |    Vars  Clauses Literals |    Limit  Clauses Lit/Cl |          |
===============================================================================
===============================================================================
restarts              : 1
conflicts             : 3              (375 /sec)
decisions             : 5              (0.00 % random) (625 /sec)
propagations          : 986            (123250 /sec)
conflict literals     : 4              (50.00 % deleted)
Memory used           : 23.00 MB
CPU time              : 0.008 s

SATISFIABLE


